c ind 1 2 3 4 5 6 7 8 9 10 11 12 13 14 15 16 17 18 19 20 21 22 23 24 25 26 27 28 29 30 31 32 33 34 35 36 37 38 39 40 41 42 43 44 45 46 47 48 49 50 0
p cnf 307 513               
-39 101 0
-40 101 0
-2 -1 -51 0
51 -53 0
1 2 -52 0
52 -53 0
53 -81 0
-4 -3 -54 0
54 -56 0
3 4 -55 0
55 -56 0
56 -81 0
-6 -5 -57 0
57 -59 0
5 6 -58 0
58 -59 0
59 -81 0
-8 -7 -60 0
60 -62 0
7 8 -61 0
61 -62 0
62 -81 0
-10 -9 -63 0
63 -65 0
9 10 -64 0
64 -65 0
65 -81 0
-12 -11 -66 0
66 -68 0
11 12 -67 0
67 -68 0
68 -81 0
-14 -13 -69 0
69 -71 0
13 14 -70 0
70 -71 0
71 -81 0
-16 -15 -72 0
72 -74 0
15 16 -73 0
73 -74 0
74 -81 0
-18 -17 -75 0
75 -77 0
17 18 -76 0
76 -77 0
77 -81 0
-20 -19 -78 0
78 -80 0
19 20 -79 0
79 -80 0
80 -81 0
-22 -21 -82 0
82 -102 0
-24 -23 -84 0
84 -102 0
-26 -25 -86 0
86 -102 0
-28 -27 -88 0
88 -102 0
-30 -29 -90 0
90 -102 0
-32 -31 -92 0
92 -102 0
-34 -33 -94 0
94 -102 0
-36 -35 -96 0
96 -102 0
-38 -37 -98 0
98 -102 0
-40 -39 -100 0
100 -102 0
-2 -103 0
1 -103 0
-22 -104 0
21 -104 0
104 -118 0
2 -105 0
21 -105 0
-2 -21 105 0
-105 109 0
1 -107 0
22 -107 0
-1 -22 107 0
-107 109 0
105 107 -109 0
-3 109 -111 0
111 -113 0
1 -106 0
21 -106 0
-1 -21 106 0
-106 110 0
2 -108 0
22 -108 0
-2 -22 108 0
-108 110 0
106 108 -110 0
-4 110 -112 0
112 -113 0
113 -117 0
-109 3 -114 0
114 -116 0
-110 4 -115 0
115 -116 0
116 -117 0
117 -118 0
117 -120 0
-21 -119 0
22 -119 0
119 -120 0
118 120 -121 0
121 -266 0
-24 -122 0
23 -122 0
122 -136 0
4 -123 0
23 -123 0
-4 -23 123 0
-123 127 0
3 -125 0
24 -125 0
-3 -24 125 0
-125 127 0
123 125 -127 0
-5 127 -129 0
129 -131 0
3 -124 0
23 -124 0
-3 -23 124 0
-124 128 0
4 -126 0
24 -126 0
-4 -24 126 0
-126 128 0
124 126 -128 0
-6 128 -130 0
130 -131 0
131 -135 0
-127 5 -132 0
132 -134 0
-128 6 -133 0
133 -134 0
134 -135 0
135 -136 0
135 -138 0
-23 -137 0
24 -137 0
137 -138 0
136 138 -139 0
139 -266 0
-26 -140 0
25 -140 0
140 -154 0
6 -141 0
25 -141 0
-6 -25 141 0
-141 145 0
5 -143 0
26 -143 0
-5 -26 143 0
-143 145 0
141 143 -145 0
-7 145 -147 0
147 -149 0
5 -142 0
25 -142 0
-5 -25 142 0
-142 146 0
6 -144 0
26 -144 0
-6 -26 144 0
-144 146 0
142 144 -146 0
-8 146 -148 0
148 -149 0
149 -153 0
-145 7 -150 0
150 -152 0
-146 8 -151 0
151 -152 0
152 -153 0
153 -154 0
153 -156 0
-25 -155 0
26 -155 0
155 -156 0
154 156 -157 0
157 -266 0
-28 -158 0
27 -158 0
158 -172 0
8 -159 0
27 -159 0
-8 -27 159 0
-159 163 0
7 -161 0
28 -161 0
-7 -28 161 0
-161 163 0
159 161 -163 0
-9 163 -165 0
165 -167 0
7 -160 0
27 -160 0
-7 -27 160 0
-160 164 0
8 -162 0
28 -162 0
-8 -28 162 0
-162 164 0
160 162 -164 0
-10 164 -166 0
166 -167 0
167 -171 0
-163 9 -168 0
168 -170 0
-164 10 -169 0
169 -170 0
170 -171 0
171 -172 0
171 -174 0
-27 -173 0
28 -173 0
173 -174 0
172 174 -175 0
175 -266 0
-30 -176 0
29 -176 0
176 -190 0
10 -177 0
29 -177 0
-10 -29 177 0
-177 181 0
9 -179 0
30 -179 0
-9 -30 179 0
-179 181 0
177 179 -181 0
-11 181 -183 0
183 -185 0
9 -178 0
29 -178 0
-9 -29 178 0
-178 182 0
10 -180 0
30 -180 0
-10 -30 180 0
-180 182 0
178 180 -182 0
-12 182 -184 0
184 -185 0
185 -189 0
-181 11 -186 0
186 -188 0
-182 12 -187 0
187 -188 0
188 -189 0
189 -190 0
189 -192 0
-29 -191 0
30 -191 0
191 -192 0
190 192 -193 0
193 -266 0
-32 -194 0
31 -194 0
194 -208 0
12 -195 0
31 -195 0
-12 -31 195 0
-195 199 0
11 -197 0
32 -197 0
-11 -32 197 0
-197 199 0
195 197 -199 0
-13 199 -201 0
201 -203 0
11 -196 0
31 -196 0
-11 -31 196 0
-196 200 0
12 -198 0
32 -198 0
-12 -32 198 0
-198 200 0
196 198 -200 0
-14 200 -202 0
202 -203 0
203 -207 0
-199 13 -204 0
204 -206 0
-200 14 -205 0
205 -206 0
206 -207 0
207 -208 0
207 -210 0
-31 -209 0
32 -209 0
209 -210 0
208 210 -211 0
211 -266 0
-34 -212 0
33 -212 0
212 -226 0
14 -213 0
33 -213 0
-14 -33 213 0
-213 217 0
13 -215 0
34 -215 0
-13 -34 215 0
-215 217 0
213 215 -217 0
-15 217 -219 0
219 -221 0
13 -214 0
33 -214 0
-13 -33 214 0
-214 218 0
14 -216 0
34 -216 0
-14 -34 216 0
-216 218 0
214 216 -218 0
-16 218 -220 0
220 -221 0
221 -225 0
-217 15 -222 0
222 -224 0
-218 16 -223 0
223 -224 0
224 -225 0
225 -226 0
225 -228 0
-33 -227 0
34 -227 0
227 -228 0
226 228 -229 0
229 -266 0
-36 -230 0
35 -230 0
230 -244 0
16 -231 0
35 -231 0
-16 -35 231 0
-231 235 0
15 -233 0
36 -233 0
-15 -36 233 0
-233 235 0
231 233 -235 0
-17 235 -237 0
237 -239 0
15 -232 0
35 -232 0
-15 -35 232 0
-232 236 0
16 -234 0
36 -234 0
-16 -36 234 0
-234 236 0
232 234 -236 0
-18 236 -238 0
238 -239 0
239 -243 0
-235 17 -240 0
240 -242 0
-236 18 -241 0
241 -242 0
242 -243 0
243 -244 0
243 -246 0
-35 -245 0
36 -245 0
245 -246 0
244 246 -247 0
247 -266 0
-38 -248 0
37 -248 0
248 -262 0
18 -249 0
37 -249 0
-18 -37 249 0
-249 253 0
17 -251 0
38 -251 0
-17 -38 251 0
-251 253 0
249 251 -253 0
-19 253 -255 0
255 -257 0
17 -250 0
37 -250 0
-17 -37 250 0
-250 254 0
18 -252 0
38 -252 0
-18 -38 252 0
-252 254 0
250 252 -254 0
-20 254 -256 0
256 -257 0
257 -261 0
-253 19 -258 0
258 -260 0
-254 20 -259 0
259 -260 0
260 -261 0
261 -262 0
261 -264 0
-37 -263 0
38 -263 0
263 -264 0
262 264 -265 0
265 -266 0
-42 -41 -267 0
267 -285 0
-41 268 0
-42 268 0
41 42 -268 0
-268 -43 -269 0
269 -285 0
-43 270 0
-268 270 0
43 268 -270 0
-270 -44 -271 0
271 -285 0
-44 272 0
-270 272 0
44 270 -272 0
-272 -45 -273 0
273 -285 0
-45 274 0
-272 274 0
45 272 -274 0
-274 -46 -275 0
275 -285 0
-46 276 0
-274 276 0
46 274 -276 0
-276 -47 -277 0
277 -285 0
-47 278 0
-276 278 0
47 276 -278 0
-278 -48 -279 0
279 -285 0
-48 280 0
-278 280 0
48 278 -280 0
-280 -49 -281 0
281 -285 0
-49 282 0
-280 282 0
49 280 -282 0
-282 -50 -283 0
283 -285 0
50 282 -284 0
284 -285 0
285 -306 0
-3 -287 0
4 -287 0
-41 287 -288 0
288 -305 0
-5 -289 0
6 -289 0
-268 289 -290 0
290 -305 0
-7 -291 0
8 -291 0
-270 291 -292 0
292 -305 0
-9 -293 0
10 -293 0
-272 293 -294 0
294 -305 0
-11 -295 0
12 -295 0
-274 295 -296 0
296 -305 0
-13 -297 0
14 -297 0
-276 297 -298 0
298 -305 0
-15 -299 0
16 -299 0
-278 299 -300 0
300 -305 0
-17 -301 0
18 -301 0
-280 301 -302 0
302 -305 0
-41 286 0
-42 286 0
-43 286 0
-44 286 0
-45 286 0
-46 286 0
-47 286 0
-48 286 0
-49 286 0
-19 -303 0
20 -303 0
-286 303 -304 0
304 -305 0
305 -306 0
-101 0
81 0
102 0
103 0
266 0
306 0
